p tw 171 29071 2 
1 3 
1 4 
1 5 
1 6 
1 7 
1 8 
1 9 
1 10 
1 11 
1 12 
1 13 
1 14 
1 15 
1 16 
1 17 
1 18 
1 19 
1 20 
1 21 
1 22 
1 23 
1 24 
1 25 
1 26 
1 27 
1 28 
1 29 
1 30 
1 31 
1 32 
1 33 
1 34 
1 35 
2 3 
2 4 
2 5 
2 6 
2 7 
2 8 
2 9 
2 10 
2 11 
2 12 
2 13 
2 14 
2 15 
2 16 
2 17 
2 18 
2 19 
2 36 
2 37 
2 38 
2 39 
2 40 
2 41 
2 42 
2 43 
2 44 
2 45 
2 46 
2 47 
2 48 
2 49 
2 50 
2 51 
3 4 
3 5 
3 6 
3 7 
3 8 
3 9 
3 10 
3 11 
3 12 
3 13 
3 14 
3 15 
3 16 
3 17 
3 18 
3 20 
3 36 
3 52 
3 53 
3 54 
3 55 
3 56 
3 57 
3 58 
3 59 
3 60 
3 61 
3 62 
3 63 
3 64 
3 65 
3 66 
4 5 
4 6 
4 7 
4 8 
4 9 
4 10 
4 11 
4 12 
4 13 
4 14 
4 15 
4 16 
4 17 
4 18 
4 21 
4 37 
4 52 
4 67 
4 68 
4 69 
4 70 
4 71 
4 72 
4 73 
4 74 
4 75 
4 76 
4 77 
4 78 
4 79 
4 80 
5 6 
5 7 
5 8 
5 9 
5 10 
5 11 
5 12 
5 13 
5 14 
5 15 
5 16 
5 17 
5 18 
5 22 
5 38 
5 53 
5 67 
5 81 
5 82 
5 83 
5 84 
5 85 
5 86 
5 87 
5 88 
5 89 
5 90 
5 91 
5 92 
5 93 
6 7 
6 8 
6 9 
6 10 
6 11 
6 12 
6 13 
6 14 
6 15 
6 16 
6 17 
6 18 
6 23 
6 39 
6 54 
6 68 
6 81 
6 94 
6 95 
6 96 
6 97 
6 98 
6 99 
6 100 
6 101 
6 102 
6 103 
6 104 
6 105 
7 8 
7 9 
7 10 
7 11 
7 12 
7 13 
7 14 
7 15 
7 16 
7 17 
7 18 
7 24 
7 40 
7 55 
7 69 
7 82 
7 94 
7 106 
7 107 
7 108 
7 109 
7 110 
7 111 
7 112 
7 113 
7 114 
7 115 
7 116 
8 9 
8 10 
8 11 
8 12 
8 13 
8 14 
8 15 
8 16 
8 17 
8 18 
8 25 
8 41 
8 56 
8 70 
8 83 
8 95 
8 106 
8 117 
8 118 
8 119 
8 120 
8 121 
8 122 
8 123 
8 124 
8 125 
8 126 
9 10 
9 11 
9 12 
9 13 
9 14 
9 15 
9 16 
9 17 
9 18 
9 26 
9 42 
9 57 
9 71 
9 84 
9 96 
9 107 
9 117 
9 127 
9 128 
9 129 
9 130 
9 131 
9 132 
9 133 
9 134 
9 135 
10 11 
10 12 
10 13 
10 14 
10 15 
10 16 
10 17 
10 18 
10 27 
10 43 
10 58 
10 72 
10 85 
10 97 
10 108 
10 118 
10 127 
10 136 
10 137 
10 138 
10 139 
10 140 
10 141 
10 142 
10 143 
11 12 
11 13 
11 14 
11 15 
11 16 
11 17 
11 18 
11 28 
11 44 
11 59 
11 73 
11 86 
11 98 
11 109 
11 119 
11 128 
11 136 
11 144 
11 145 
11 146 
11 147 
11 148 
11 149 
11 150 
12 13 
12 14 
12 15 
12 16 
12 17 
12 18 
12 29 
12 45 
12 60 
12 74 
12 87 
12 99 
12 110 
12 120 
12 129 
12 137 
12 144 
12 151 
12 152 
12 153 
12 154 
12 155 
12 156 
13 14 
13 15 
13 16 
13 17 
13 18 
13 30 
13 46 
13 61 
13 75 
13 88 
13 100 
13 111 
13 121 
13 130 
13 138 
13 145 
13 151 
13 157 
13 158 
13 159 
13 160 
13 161 
14 15 
14 16 
14 17 
14 18 
14 31 
14 47 
14 62 
14 76 
14 89 
14 101 
14 112 
14 122 
14 131 
14 139 
14 146 
14 152 
14 157 
14 162 
14 163 
14 164 
14 165 
15 16 
15 17 
15 18 
15 32 
15 48 
15 63 
15 77 
15 90 
15 102 
15 113 
15 123 
15 132 
15 140 
15 147 
15 153 
15 158 
15 162 
15 166 
15 167 
15 168 
16 17 
16 18 
16 33 
16 49 
16 64 
16 78 
16 91 
16 103 
16 114 
16 124 
16 133 
16 141 
16 148 
16 154 
16 159 
16 163 
16 166 
16 169 
16 170 
17 18 
17 34 
17 50 
17 65 
17 79 
17 92 
17 104 
17 115 
17 125 
17 134 
17 142 
17 149 
17 155 
17 160 
17 164 
17 167 
17 169 
17 171 
18 35 
18 51 
18 66 
18 80 
18 93 
18 105 
18 116 
18 126 
18 135 
18 143 
18 150 
18 156 
18 161 
18 165 
18 168 
18 170 
18 171 
19 20 
19 21 
19 22 
19 23 
19 24 
19 25 
19 26 
19 27 
19 28 
19 29 
19 30 
19 31 
19 32 
19 33 
19 34 
19 35 
19 36 
19 37 
19 38 
19 39 
19 40 
19 41 
19 42 
19 43 
19 44 
19 45 
19 46 
19 47 
19 48 
19 49 
19 50 
19 51 
20 21 
20 22 
20 23 
20 24 
20 25 
20 26 
20 27 
20 28 
20 29 
20 30 
20 31 
20 32 
20 33 
20 34 
20 35 
20 36 
20 52 
20 53 
20 54 
20 55 
20 56 
20 57 
20 58 
20 59 
20 60 
20 61 
20 62 
20 63 
20 64 
20 65 
20 66 
21 22 
21 23 
21 24 
21 25 
21 26 
21 27 
21 28 
21 29 
21 30 
21 31 
21 32 
21 33 
21 34 
21 35 
21 37 
21 52 
21 67 
21 68 
21 69 
21 70 
21 71 
21 72 
21 73 
21 74 
21 75 
21 76 
21 77 
21 78 
21 79 
21 80 
22 23 
22 24 
22 25 
22 26 
22 27 
22 28 
22 29 
22 30 
22 31 
22 32 
22 33 
22 34 
22 35 
22 38 
22 53 
22 67 
22 81 
22 82 
22 83 
22 84 
22 85 
22 86 
22 87 
22 88 
22 89 
22 90 
22 91 
22 92 
22 93 
23 24 
23 25 
23 26 
23 27 
23 28 
23 29 
23 30 
23 31 
23 32 
23 33 
23 34 
23 35 
23 39 
23 54 
23 68 
23 81 
23 94 
23 95 
23 96 
23 97 
23 98 
23 99 
23 100 
23 101 
23 102 
23 103 
23 104 
23 105 
24 25 
24 26 
24 27 
24 28 
24 29 
24 30 
24 31 
24 32 
24 33 
24 34 
24 35 
24 40 
24 55 
24 69 
24 82 
24 94 
24 106 
24 107 
24 108 
24 109 
24 110 
24 111 
24 112 
24 113 
24 114 
24 115 
24 116 
25 26 
25 27 
25 28 
25 29 
25 30 
25 31 
25 32 
25 33 
25 34 
25 35 
25 41 
25 56 
25 70 
25 83 
25 95 
25 106 
25 117 
25 118 
25 119 
25 120 
25 121 
25 122 
25 123 
25 124 
25 125 
25 126 
26 27 
26 28 
26 29 
26 30 
26 31 
26 32 
26 33 
26 34 
26 35 
26 42 
26 57 
26 71 
26 84 
26 96 
26 107 
26 117 
26 127 
26 128 
26 129 
26 130 
26 131 
26 132 
26 133 
26 134 
26 135 
27 28 
27 29 
27 30 
27 31 
27 32 
27 33 
27 34 
27 35 
27 43 
27 58 
27 72 
27 85 
27 97 
27 108 
27 118 
27 127 
27 136 
27 137 
27 138 
27 139 
27 140 
27 141 
27 142 
27 143 
28 29 
28 30 
28 31 
28 32 
28 33 
28 34 
28 35 
28 44 
28 59 
28 73 
28 86 
28 98 
28 109 
28 119 
28 128 
28 136 
28 144 
28 145 
28 146 
28 147 
28 148 
28 149 
28 150 
29 30 
29 31 
29 32 
29 33 
29 34 
29 35 
29 45 
29 60 
29 74 
29 87 
29 99 
29 110 
29 120 
29 129 
29 137 
29 144 
29 151 
29 152 
29 153 
29 154 
29 155 
29 156 
30 31 
30 32 
30 33 
30 34 
30 35 
30 46 
30 61 
30 75 
30 88 
30 100 
30 111 
30 121 
30 130 
30 138 
30 145 
30 151 
30 157 
30 158 
30 159 
30 160 
30 161 
31 32 
31 33 
31 34 
31 35 
31 47 
31 62 
31 76 
31 89 
31 101 
31 112 
31 122 
31 131 
31 139 
31 146 
31 152 
31 157 
31 162 
31 163 
31 164 
31 165 
32 33 
32 34 
32 35 
32 48 
32 63 
32 77 
32 90 
32 102 
32 113 
32 123 
32 132 
32 140 
32 147 
32 153 
32 158 
32 162 
32 166 
32 167 
32 168 
33 34 
33 35 
33 49 
33 64 
33 78 
33 91 
33 103 
33 114 
33 124 
33 133 
33 141 
33 148 
33 154 
33 159 
33 163 
33 166 
33 169 
33 170 
34 35 
34 50 
34 65 
34 79 
34 92 
34 104 
34 115 
34 125 
34 134 
34 142 
34 149 
34 155 
34 160 
34 164 
34 167 
34 169 
34 171 
35 51 
35 66 
35 80 
35 93 
35 105 
35 116 
35 126 
35 135 
35 143 
35 150 
35 156 
35 161 
35 165 
35 168 
35 170 
35 171 
36 37 
36 38 
36 39 
36 40 
36 41 
36 42 
36 43 
36 44 
36 45 
36 46 
36 47 
36 48 
36 49 
36 50 
36 51 
36 52 
36 53 
36 54 
36 55 
36 56 
36 57 
36 58 
36 59 
36 60 
36 61 
36 62 
36 63 
36 64 
36 65 
36 66 
37 38 
37 39 
37 40 
37 41 
37 42 
37 43 
37 44 
37 45 
37 46 
37 47 
37 48 
37 49 
37 50 
37 51 
37 52 
37 67 
37 68 
37 69 
37 70 
37 71 
37 72 
37 73 
37 74 
37 75 
37 76 
37 77 
37 78 
37 79 
37 80 
38 39 
38 40 
38 41 
38 42 
38 43 
38 44 
38 45 
38 46 
38 47 
38 48 
38 49 
38 50 
38 51 
38 53 
38 67 
38 81 
38 82 
38 83 
38 84 
38 85 
38 86 
38 87 
38 88 
38 89 
38 90 
38 91 
38 92 
38 93 
39 40 
39 41 
39 42 
39 43 
39 44 
39 45 
39 46 
39 47 
39 48 
39 49 
39 50 
39 51 
39 54 
39 68 
39 81 
39 94 
39 95 
39 96 
39 97 
39 98 
39 99 
39 100 
39 101 
39 102 
39 103 
39 104 
39 105 
40 41 
40 42 
40 43 
40 44 
40 45 
40 46 
40 47 
40 48 
40 49 
40 50 
40 51 
40 55 
40 69 
40 82 
40 94 
40 106 
40 107 
40 108 
40 109 
40 110 
40 111 
40 112 
40 113 
40 114 
40 115 
40 116 
41 42 
41 43 
41 44 
41 45 
41 46 
41 47 
41 48 
41 49 
41 50 
41 51 
41 56 
41 70 
41 83 
41 95 
41 106 
41 117 
41 118 
41 119 
41 120 
41 121 
41 122 
41 123 
41 124 
41 125 
41 126 
42 43 
42 44 
42 45 
42 46 
42 47 
42 48 
42 49 
42 50 
42 51 
42 57 
42 71 
42 84 
42 96 
42 107 
42 117 
42 127 
42 128 
42 129 
42 130 
42 131 
42 132 
42 133 
42 134 
42 135 
43 44 
43 45 
43 46 
43 47 
43 48 
43 49 
43 50 
43 51 
43 58 
43 72 
43 85 
43 97 
43 108 
43 118 
43 127 
43 136 
43 137 
43 138 
43 139 
43 140 
43 141 
43 142 
43 143 
44 45 
44 46 
44 47 
44 48 
44 49 
44 50 
44 51 
44 59 
44 73 
44 86 
44 98 
44 109 
44 119 
44 128 
44 136 
44 144 
44 145 
44 146 
44 147 
44 148 
44 149 
44 150 
45 46 
45 47 
45 48 
45 49 
45 50 
45 51 
45 60 
45 74 
45 87 
45 99 
45 110 
45 120 
45 129 
45 137 
45 144 
45 151 
45 152 
45 153 
45 154 
45 155 
45 156 
46 47 
46 48 
46 49 
46 50 
46 51 
46 61 
46 75 
46 88 
46 100 
46 111 
46 121 
46 130 
46 138 
46 145 
46 151 
46 157 
46 158 
46 159 
46 160 
46 161 
47 48 
47 49 
47 50 
47 51 
47 62 
47 76 
47 89 
47 101 
47 112 
47 122 
47 131 
47 139 
47 146 
47 152 
47 157 
47 162 
47 163 
47 164 
47 165 
48 49 
48 50 
48 51 
48 63 
48 77 
48 90 
48 102 
48 113 
48 123 
48 132 
48 140 
48 147 
48 153 
48 158 
48 162 
48 166 
48 167 
48 168 
49 50 
49 51 
49 64 
49 78 
49 91 
49 103 
49 114 
49 124 
49 133 
49 141 
49 148 
49 154 
49 159 
49 163 
49 166 
49 169 
49 170 
50 51 
50 65 
50 79 
50 92 
50 104 
50 115 
50 125 
50 134 
50 142 
50 149 
50 155 
50 160 
50 164 
50 167 
50 169 
50 171 
51 66 
51 80 
51 93 
51 105 
51 116 
51 126 
51 135 
51 143 
51 150 
51 156 
51 161 
51 165 
51 168 
51 170 
51 171 
52 53 
52 54 
52 55 
52 56 
52 57 
52 58 
52 59 
52 60 
52 61 
52 62 
52 63 
52 64 
52 65 
52 66 
52 67 
52 68 
52 69 
52 70 
52 71 
52 72 
52 73 
52 74 
52 75 
52 76 
52 77 
52 78 
52 79 
52 80 
53 54 
53 55 
53 56 
53 57 
53 58 
53 59 
53 60 
53 61 
53 62 
53 63 
53 64 
53 65 
53 66 
53 67 
53 81 
53 82 
53 83 
53 84 
53 85 
53 86 
53 87 
53 88 
53 89 
53 90 
53 91 
53 92 
53 93 
54 55 
54 56 
54 57 
54 58 
54 59 
54 60 
54 61 
54 62 
54 63 
54 64 
54 65 
54 66 
54 68 
54 81 
54 94 
54 95 
54 96 
54 97 
54 98 
54 99 
54 100 
54 101 
54 102 
54 103 
54 104 
54 105 
55 56 
55 57 
55 58 
55 59 
55 60 
55 61 
55 62 
55 63 
55 64 
55 65 
55 66 
55 69 
55 82 
55 94 
55 106 
55 107 
55 108 
55 109 
55 110 
55 111 
55 112 
55 113 
55 114 
55 115 
55 116 
56 57 
56 58 
56 59 
56 60 
56 61 
56 62 
56 63 
56 64 
56 65 
56 66 
56 70 
56 83 
56 95 
56 106 
56 117 
56 118 
56 119 
56 120 
56 121 
56 122 
56 123 
56 124 
56 125 
56 126 
57 58 
57 59 
57 60 
57 61 
57 62 
57 63 
57 64 
57 65 
57 66 
57 71 
57 84 
57 96 
57 107 
57 117 
57 127 
57 128 
57 129 
57 130 
57 131 
57 132 
57 133 
57 134 
57 135 
58 59 
58 60 
58 61 
58 62 
58 63 
58 64 
58 65 
58 66 
58 72 
58 85 
58 97 
58 108 
58 118 
58 127 
58 136 
58 137 
58 138 
58 139 
58 140 
58 141 
58 142 
58 143 
59 60 
59 61 
59 62 
59 63 
59 64 
59 65 
59 66 
59 73 
59 86 
59 98 
59 109 
59 119 
59 128 
59 136 
59 144 
59 145 
59 146 
59 147 
59 148 
59 149 
59 150 
60 61 
60 62 
60 63 
60 64 
60 65 
60 66 
60 74 
60 87 
60 99 
60 110 
60 120 
60 129 
60 137 
60 144 
60 151 
60 152 
60 153 
60 154 
60 155 
60 156 
61 62 
61 63 
61 64 
61 65 
61 66 
61 75 
61 88 
61 100 
61 111 
61 121 
61 130 
61 138 
61 145 
61 151 
61 157 
61 158 
61 159 
61 160 
61 161 
62 63 
62 64 
62 65 
62 66 
62 76 
62 89 
62 101 
62 112 
62 122 
62 131 
62 139 
62 146 
62 152 
62 157 
62 162 
62 163 
62 164 
62 165 
63 64 
63 65 
63 66 
63 77 
63 90 
63 102 
63 113 
63 123 
63 132 
63 140 
63 147 
63 153 
63 158 
63 162 
63 166 
63 167 
63 168 
64 65 
64 66 
64 78 
64 91 
64 103 
64 114 
64 124 
64 133 
64 141 
64 148 
64 154 
64 159 
64 163 
64 166 
64 169 
64 170 
65 66 
65 79 
65 92 
65 104 
65 115 
65 125 
65 134 
65 142 
65 149 
65 155 
65 160 
65 164 
65 167 
65 169 
65 171 
66 80 
66 93 
66 105 
66 116 
66 126 
66 135 
66 143 
66 150 
66 156 
66 161 
66 165 
66 168 
66 170 
66 171 
67 68 
67 69 
67 70 
67 71 
67 72 
67 73 
67 74 
67 75 
67 76 
67 77 
67 78 
67 79 
67 80 
67 81 
67 82 
67 83 
67 84 
67 85 
67 86 
67 87 
67 88 
67 89 
67 90 
67 91 
67 92 
67 93 
68 69 
68 70 
68 71 
68 72 
68 73 
68 74 
68 75 
68 76 
68 77 
68 78 
68 79 
68 80 
68 81 
68 94 
68 95 
68 96 
68 97 
68 98 
68 99 
68 100 
68 101 
68 102 
68 103 
68 104 
68 105 
69 70 
69 71 
69 72 
69 73 
69 74 
69 75 
69 76 
69 77 
69 78 
69 79 
69 80 
69 82 
69 94 
69 106 
69 107 
69 108 
69 109 
69 110 
69 111 
69 112 
69 113 
69 114 
69 115 
69 116 
70 71 
70 72 
70 73 
70 74 
70 75 
70 76 
70 77 
70 78 
70 79 
70 80 
70 83 
70 95 
70 106 
70 117 
70 118 
70 119 
70 120 
70 121 
70 122 
70 123 
70 124 
70 125 
70 126 
71 72 
71 73 
71 74 
71 75 
71 76 
71 77 
71 78 
71 79 
71 80 
71 84 
71 96 
71 107 
71 117 
71 127 
71 128 
71 129 
71 130 
71 131 
71 132 
71 133 
71 134 
71 135 
72 73 
72 74 
72 75 
72 76 
72 77 
72 78 
72 79 
72 80 
72 85 
72 97 
72 108 
72 118 
72 127 
72 136 
72 137 
72 138 
72 139 
72 140 
72 141 
72 142 
72 143 
73 74 
73 75 
73 76 
73 77 
73 78 
73 79 
73 80 
73 86 
73 98 
73 109 
73 119 
73 128 
73 136 
73 144 
73 145 
73 146 
73 147 
73 148 
73 149 
73 150 
74 75 
74 76 
74 77 
74 78 
74 79 
74 80 
74 87 
74 99 
74 110 
74 120 
74 129 
74 137 
74 144 
74 151 
74 152 
74 153 
74 154 
74 155 
74 156 
75 76 
75 77 
75 78 
75 79 
75 80 
75 88 
75 100 
75 111 
75 121 
75 130 
75 138 
75 145 
75 151 
75 157 
75 158 
75 159 
75 160 
75 161 
76 77 
76 78 
76 79 
76 80 
76 89 
76 101 
76 112 
76 122 
76 131 
76 139 
76 146 
76 152 
76 157 
76 162 
76 163 
76 164 
76 165 
77 78 
77 79 
77 80 
77 90 
77 102 
77 113 
77 123 
77 132 
77 140 
77 147 
77 153 
77 158 
77 162 
77 166 
77 167 
77 168 
78 79 
78 80 
78 91 
78 103 
78 114 
78 124 
78 133 
78 141 
78 148 
78 154 
78 159 
78 163 
78 166 
78 169 
78 170 
79 80 
79 92 
79 104 
79 115 
79 125 
79 134 
79 142 
79 149 
79 155 
79 160 
79 164 
79 167 
79 169 
79 171 
80 93 
80 105 
80 116 
80 126 
80 135 
80 143 
80 150 
80 156 
80 161 
80 165 
80 168 
80 170 
80 171 
81 82 
81 83 
81 84 
81 85 
81 86 
81 87 
81 88 
81 89 
81 90 
81 91 
81 92 
81 93 
81 94 
81 95 
81 96 
81 97 
81 98 
81 99 
81 100 
81 101 
81 102 
81 103 
81 104 
81 105 
82 83 
82 84 
82 85 
82 86 
82 87 
82 88 
82 89 
82 90 
82 91 
82 92 
82 93 
82 94 
82 106 
82 107 
82 108 
82 109 
82 110 
82 111 
82 112 
82 113 
82 114 
82 115 
82 116 
83 84 
83 85 
83 86 
83 87 
83 88 
83 89 
83 90 
83 91 
83 92 
83 93 
83 95 
83 106 
83 117 
83 118 
83 119 
83 120 
83 121 
83 122 
83 123 
83 124 
83 125 
83 126 
84 85 
84 86 
84 87 
84 88 
84 89 
84 90 
84 91 
84 92 
84 93 
84 96 
84 107 
84 117 
84 127 
84 128 
84 129 
84 130 
84 131 
84 132 
84 133 
84 134 
84 135 
85 86 
85 87 
85 88 
85 89 
85 90 
85 91 
85 92 
85 93 
85 97 
85 108 
85 118 
85 127 
85 136 
85 137 
85 138 
85 139 
85 140 
85 141 
85 142 
85 143 
86 87 
86 88 
86 89 
86 90 
86 91 
86 92 
86 93 
86 98 
86 109 
86 119 
86 128 
86 136 
86 144 
86 145 
86 146 
86 147 
86 148 
86 149 
86 150 
87 88 
87 89 
87 90 
87 91 
87 92 
87 93 
87 99 
87 110 
87 120 
87 129 
87 137 
87 144 
87 151 
87 152 
87 153 
87 154 
87 155 
87 156 
88 89 
88 90 
88 91 
88 92 
88 93 
88 100 
88 111 
88 121 
88 130 
88 138 
88 145 
88 151 
88 157 
88 158 
88 159 
88 160 
88 161 
89 90 
89 91 
89 92 
89 93 
89 101 
89 112 
89 122 
89 131 
89 139 
89 146 
89 152 
89 157 
89 162 
89 163 
89 164 
89 165 
90 91 
90 92 
90 93 
90 102 
90 113 
90 123 
90 132 
90 140 
90 147 
90 153 
90 158 
90 162 
90 166 
90 167 
90 168 
91 92 
91 93 
91 103 
91 114 
91 124 
91 133 
91 141 
91 148 
91 154 
91 159 
91 163 
91 166 
91 169 
91 170 
92 93 
92 104 
92 115 
92 125 
92 134 
92 142 
92 149 
92 155 
92 160 
92 164 
92 167 
92 169 
92 171 
93 105 
93 116 
93 126 
93 135 
93 143 
93 150 
93 156 
93 161 
93 165 
93 168 
93 170 
93 171 
94 95 
94 96 
94 97 
94 98 
94 99 
94 100 
94 101 
94 102 
94 103 
94 104 
94 105 
94 106 
94 107 
94 108 
94 109 
94 110 
94 111 
94 112 
94 113 
94 114 
94 115 
94 116 
95 96 
95 97 
95 98 
95 99 
95 100 
95 101 
95 102 
95 103 
95 104 
95 105 
95 106 
95 117 
95 118 
95 119 
95 120 
95 121 
95 122 
95 123 
95 124 
95 125 
95 126 
96 97 
96 98 
96 99 
96 100 
96 101 
96 102 
96 103 
96 104 
96 105 
96 107 
96 117 
96 127 
96 128 
96 129 
96 130 
96 131 
96 132 
96 133 
96 134 
96 135 
97 98 
97 99 
97 100 
97 101 
97 102 
97 103 
97 104 
97 105 
97 108 
97 118 
97 127 
97 136 
97 137 
97 138 
97 139 
97 140 
97 141 
97 142 
97 143 
98 99 
98 100 
98 101 
98 102 
98 103 
98 104 
98 105 
98 109 
98 119 
98 128 
98 136 
98 144 
98 145 
98 146 
98 147 
98 148 
98 149 
98 150 
99 100 
99 101 
99 102 
99 103 
99 104 
99 105 
99 110 
99 120 
99 129 
99 137 
99 144 
99 151 
99 152 
99 153 
99 154 
99 155 
99 156 
100 101 
100 102 
100 103 
100 104 
100 105 
100 111 
100 121 
100 130 
100 138 
100 145 
100 151 
100 157 
100 158 
100 159 
100 160 
100 161 
101 102 
101 103 
101 104 
101 105 
101 112 
101 122 
101 131 
101 139 
101 146 
101 152 
101 157 
101 162 
101 163 
101 164 
101 165 
102 103 
102 104 
102 105 
102 113 
102 123 
102 132 
102 140 
102 147 
102 153 
102 158 
102 162 
102 166 
102 167 
102 168 
103 104 
103 105 
103 114 
103 124 
103 133 
103 141 
103 148 
103 154 
103 159 
103 163 
103 166 
103 169 
103 170 
104 105 
104 115 
104 125 
104 134 
104 142 
104 149 
104 155 
104 160 
104 164 
104 167 
104 169 
104 171 
105 116 
105 126 
105 135 
105 143 
105 150 
105 156 
105 161 
105 165 
105 168 
105 170 
105 171 
106 107 
106 108 
106 109 
106 110 
106 111 
106 112 
106 113 
106 114 
106 115 
106 116 
106 117 
106 118 
106 119 
106 120 
106 121 
106 122 
106 123 
106 124 
106 125 
106 126 
107 108 
107 109 
107 110 
107 111 
107 112 
107 113 
107 114 
107 115 
107 116 
107 117 
107 127 
107 128 
107 129 
107 130 
107 131 
107 132 
107 133 
107 134 
107 135 
108 109 
108 110 
108 111 
108 112 
108 113 
108 114 
108 115 
108 116 
108 118 
108 127 
108 136 
108 137 
108 138 
108 139 
108 140 
108 141 
108 142 
108 143 
109 110 
109 111 
109 112 
109 113 
109 114 
109 115 
109 116 
109 119 
109 128 
109 136 
109 144 
109 145 
109 146 
109 147 
109 148 
109 149 
109 150 
110 111 
110 112 
110 113 
110 114 
110 115 
110 116 
110 120 
110 129 
110 137 
110 144 
110 151 
110 152 
110 153 
110 154 
110 155 
110 156 
111 112 
111 113 
111 114 
111 115 
111 116 
111 121 
111 130 
111 138 
111 145 
111 151 
111 157 
111 158 
111 159 
111 160 
111 161 
112 113 
112 114 
112 115 
112 116 
112 122 
112 131 
112 139 
112 146 
112 152 
112 157 
112 162 
112 163 
112 164 
112 165 
113 114 
113 115 
113 116 
113 123 
113 132 
113 140 
113 147 
113 153 
113 158 
113 162 
113 166 
113 167 
113 168 
114 115 
114 116 
114 124 
114 133 
114 141 
114 148 
114 154 
114 159 
114 163 
114 166 
114 169 
114 170 
115 116 
115 125 
115 134 
115 142 
115 149 
115 155 
115 160 
115 164 
115 167 
115 169 
115 171 
116 126 
116 135 
116 143 
116 150 
116 156 
116 161 
116 165 
116 168 
116 170 
116 171 
117 118 
117 119 
117 120 
117 121 
117 122 
117 123 
117 124 
117 125 
117 126 
117 127 
117 128 
117 129 
117 130 
117 131 
117 132 
117 133 
117 134 
117 135 
118 119 
118 120 
118 121 
118 122 
118 123 
118 124 
118 125 
118 126 
118 127 
118 136 
118 137 
118 138 
118 139 
118 140 
118 141 
118 142 
118 143 
119 120 
119 121 
119 122 
119 123 
119 124 
119 125 
119 126 
119 128 
119 136 
119 144 
119 145 
119 146 
119 147 
119 148 
119 149 
119 150 
120 121 
120 122 
120 123 
120 124 
120 125 
120 126 
120 129 
120 137 
120 144 
120 151 
120 152 
120 153 
120 154 
120 155 
120 156 
121 122 
121 123 
121 124 
121 125 
121 126 
121 130 
121 138 
121 145 
121 151 
121 157 
121 158 
121 159 
121 160 
121 161 
122 123 
122 124 
122 125 
122 126 
122 131 
122 139 
122 146 
122 152 
122 157 
122 162 
122 163 
122 164 
122 165 
123 124 
123 125 
123 126 
123 132 
123 140 
123 147 
123 153 
123 158 
123 162 
123 166 
123 167 
123 168 
124 125 
124 126 
124 133 
124 141 
124 148 
124 154 
124 159 
124 163 
124 166 
124 169 
124 170 
125 126 
125 134 
125 142 
125 149 
125 155 
125 160 
125 164 
125 167 
125 169 
125 171 
126 135 
126 143 
126 150 
126 156 
126 161 
126 165 
126 168 
126 170 
126 171 
127 128 
127 129 
127 130 
127 131 
127 132 
127 133 
127 134 
127 135 
127 136 
127 137 
127 138 
127 139 
127 140 
127 141 
127 142 
127 143 
128 129 
128 130 
128 131 
128 132 
128 133 
128 134 
128 135 
128 136 
128 144 
128 145 
128 146 
128 147 
128 148 
128 149 
128 150 
129 130 
129 131 
129 132 
129 133 
129 134 
129 135 
129 137 
129 144 
129 151 
129 152 
129 153 
129 154 
129 155 
129 156 
130 131 
130 132 
130 133 
130 134 
130 135 
130 138 
130 145 
130 151 
130 157 
130 158 
130 159 
130 160 
130 161 
131 132 
131 133 
131 134 
131 135 
131 139 
131 146 
131 152 
131 157 
131 162 
131 163 
131 164 
131 165 
132 133 
132 134 
132 135 
132 140 
132 147 
132 153 
132 158 
132 162 
132 166 
132 167 
132 168 
133 134 
133 135 
133 141 
133 148 
133 154 
133 159 
133 163 
133 166 
133 169 
133 170 
134 135 
134 142 
134 149 
134 155 
134 160 
134 164 
134 167 
134 169 
134 171 
135 143 
135 150 
135 156 
135 161 
135 165 
135 168 
135 170 
135 171 
136 137 
136 138 
136 139 
136 140 
136 141 
136 142 
136 143 
136 144 
136 145 
136 146 
136 147 
136 148 
136 149 
136 150 
137 138 
137 139 
137 140 
137 141 
137 142 
137 143 
137 144 
137 151 
137 152 
137 153 
137 154 
137 155 
137 156 
138 139 
138 140 
138 141 
138 142 
138 143 
138 145 
138 151 
138 157 
138 158 
138 159 
138 160 
138 161 
139 140 
139 141 
139 142 
139 143 
139 146 
139 152 
139 157 
139 162 
139 163 
139 164 
139 165 
140 141 
140 142 
140 143 
140 147 
140 153 
140 158 
140 162 
140 166 
140 167 
140 168 
141 142 
141 143 
141 148 
141 154 
141 159 
141 163 
141 166 
141 169 
141 170 
142 143 
142 149 
142 155 
142 160 
142 164 
142 167 
142 169 
142 171 
143 150 
143 156 
143 161 
143 165 
143 168 
143 170 
143 171 
144 145 
144 146 
144 147 
144 148 
144 149 
144 150 
144 151 
144 152 
144 153 
144 154 
144 155 
144 156 
145 146 
145 147 
145 148 
145 149 
145 150 
145 151 
145 157 
145 158 
145 159 
145 160 
145 161 
146 147 
146 148 
146 149 
146 150 
146 152 
146 157 
146 162 
146 163 
146 164 
146 165 
147 148 
147 149 
147 150 
147 153 
147 158 
147 162 
147 166 
147 167 
147 168 
148 149 
148 150 
148 154 
148 159 
148 163 
148 166 
148 169 
148 170 
149 150 
149 155 
149 160 
149 164 
149 167 
149 169 
149 171 
150 156 
150 161 
150 165 
150 168 
150 170 
150 171 
151 152 
151 153 
151 154 
151 155 
151 156 
151 157 
151 158 
151 159 
151 160 
151 161 
152 153 
152 154 
152 155 
152 156 
152 157 
152 162 
152 163 
152 164 
152 165 
153 154 
153 155 
153 156 
153 158 
153 162 
153 166 
153 167 
153 168 
154 155 
154 156 
154 159 
154 163 
154 166 
154 169 
154 170 
155 156 
155 160 
155 164 
155 167 
155 169 
155 171 
156 161 
156 165 
156 168 
156 170 
156 171 
157 158 
157 159 
157 160 
157 161 
157 162 
157 163 
157 164 
157 165 
158 159 
158 160 
158 161 
158 162 
158 166 
158 167 
158 168 
159 160 
159 161 
159 163 
159 166 
159 169 
159 170 
160 161 
160 164 
160 167 
160 169 
160 171 
161 165 
161 168 
161 170 
161 171 
162 163 
162 164 
162 165 
162 166 
162 167 
162 168 
163 164 
163 165 
163 166 
163 169 
163 170 
164 165 
164 167 
164 169 
164 171 
165 168 
165 170 
165 171 
166 167 
166 168 
166 169 
166 170 
167 168 
167 169 
167 171 
168 170 
168 171 
169 170 
169 171 
170 171 
